============================[ Problem Statistics ]=============================|                                                                             ||  Number of variables:          4242                                         ||  Number of clauses:           10152                                         ||  Parse time:                   0.54 s                                       ||                                                                             |============================[ Search Statistics ]==============================| Conflicts |          ORIGINAL         |          LEARNT          | Progress ||           |    Vars  Clauses Literals |    Limit  Clauses Lit/Cl |          |===============================================================================|       100 |    1591     6357   861388 |     2330      100     53 | 62.501 % ||       250 |    1591     6357   861388 |     2563      250     75 | 62.495 % |===============================================================================restarts              : 3conflicts             : 300            (366 /sec)decisions             : 566            (0.00 % random) (691 /sec)propagations          : 11854          (14474 /sec)conflict literals     : 23657          (94.74 % deleted)CPU time              : 0.819 sSATISFIABLE